c User generated cnf file
p cnf 10 46
9 -9 7 0 
1 5 -4 0 
10 -10 9 0 
5 -3 2 0 
-8 2 8 0 
-10 9 1 0 
-9 9 10 0 
1 -5 2 0 
4 1 -10 0 
-3 4 1 0 
3 -3 3 0 
4 2 -4 0 
-3 4 7 0 
-5 3 8 0 
-10 10 8 0 
-7 3 3 0 
-9 7 6 0 
-5 7 4 0 
8 1 -3 0 
5 -7 3 0 
2 -9 3 0 
8 8 -6 0 
7 8 -5 0 
-8 7 8 0 
8 -8 1 0 
7 3 -9 0 
4 -2 9 0 
-9 5 1 0 
2 9 -10 0 
9 9 -3 0 
-8 5 2 0 
4 -3 5 0 
4 -5 1 0 
9 6 -2 0 
5 -2 2 0 
8 1 -3 0 
7 -3 1 0 
5 6 -7 0 
9 -2 3 0 
1 -3 4 0 
5 1 -1 0 
7 -1 9 0 
2 2 -9 0 
7 10 -10 0 
6 4 -9 0 
6 10 -4 0 
